nServices=10;
nDrivers=10;
nBuses=10;
startingTime=[133 82 131 142 124 183 59 110 130 120];
durationTime=[14 13 26 27 10 10 26 28 14 20];
durationDist=[41 28 33 57 26 51 49 51 43 56];
passangers=[5 10 6 3 13 25 2 23 7 19];
capacity=[21 10 17 14 18 21 28 26 18 11];
costTime=[9 7 10 6 10 9 8 9 10 9];
costDist=[4 3 4 3 6 3 3 6 5 4];
maxTime=[58 34 48 55 49 35 59 59 27 50];
costBM=[5 5 7 5 7 5 8 5 7 7];
costEM=[8 10 8 9 8 9 9 8 8 9];
BM=[17 15 18 16 16 17 14 16 19 13];
